c Result of efficient AIG-to-CNF conversion using package CNF
p cnf 601 2174
-2 3 -460 -485 496 0
-2 3 460 485 496 0
2 -496 0
2 -460 485 0
2 -3 0
2 460 -485 0
-3 -4 -349 407 0
-3 4 349 407 0
3 -407 0
3 -4 349 0
3 4 -349 0
4 -596 5 -329 0
4 596 5 -17 0
-4 -5 0
-4 -596 329 0
-4 596 17 0
-5 6 8 14 15 0
5 -15 0
5 -6 0
5 -14 0
5 -8 0
-6 593 594 595 7 0
6 -7 0
6 -595 0
6 -593 0
6 -594 0
-7 590 591 592 0
7 -590 0
7 -592 0
7 -591 0
-8 9 10 12 13 0
8 -13 0
8 -9 0
8 -12 0
8 -10 0
-9 579 580 0
9 -579 0
9 -580 0
-10 576 577 578 11 0
10 -11 0
10 -578 0
10 -576 0
10 -577 0
-11 574 575 0
11 -574 0
11 -575 0
-12 587 588 589 0
12 -587 0
12 -589 0
12 -588 0
-13 569 570 583 586 0
13 -586 0
13 -583 0
13 -569 0
13 -570 0
-14 581 582 0
14 -581 0
14 -582 0
-15 571 572 573 16 0
15 -16 0
15 -573 0
15 -571 0
15 -572 0
-16 584 585 0
16 -584 0
16 -585 0
17 597 -18 0
17 -597 -304 0
-17 -597 304 0
-17 597 18 0
18 598 -19 0
18 -598 -277 0
-18 -598 277 0
-18 598 19 0
19 599 -20 0
19 -599 -252 0
-19 -599 252 0
-19 599 20 0
20 600 -21 0
20 -600 -226 0
-20 -600 226 0
-20 600 21 0
21 22 -195 -215 0
21 22 195 -196 0
-21 -22 0
-21 -195 215 0
-21 195 196 0
-22 23 157 164 179 0
22 -179 0
22 -23 0
22 -164 0
22 -157 0
-23 24 55 62 126 0
23 -24 0
23 -126 0
23 -62 0
23 -55 0
24 -596 5 -40 0
24 596 5 -25 0
-24 -5 0
-24 -596 40 0
-24 596 25 0
-25 597 26 0
-25 -597 33 0
25 -597 -33 0
25 597 -26 0
-26 598 27 0
-26 -598 30 0
26 -598 -30 0
26 598 -27 0
-27 599 29 0
-27 -599 28 0
27 -599 -28 0
27 599 -29 0
28 -540 -600 0
28 -539 600 0
-28 539 600 0
-28 540 -600 0
29 -538 -600 0
29 -537 600 0
-29 537 600 0
-29 538 -600 0
30 599 -31 0
30 -599 -32 0
-30 -599 32 0
-30 599 31 0
31 -542 -600 0
31 -541 600 0
-31 541 600 0
-31 542 -600 0
32 -544 -600 0
32 -543 600 0
-32 543 600 0
-32 544 -600 0
33 598 -34 0
33 -598 -37 0
-33 -598 37 0
-33 598 34 0
34 599 -35 0
34 -599 -36 0
-34 -599 36 0
-34 599 35 0
35 -546 -600 0
35 -545 600 0
-35 545 600 0
-35 546 -600 0
36 -548 -600 0
36 -547 600 0
-36 547 600 0
-36 548 -600 0
37 599 -38 0
37 -599 -39 0
-37 -599 39 0
-37 599 38 0
38 -550 -600 0
38 -549 600 0
-38 549 600 0
-38 550 -600 0
39 -552 -600 0
39 -551 600 0
-39 551 600 0
-39 552 -600 0
40 597 -41 0
40 -597 -48 0
-40 -597 48 0
-40 597 41 0
41 598 -42 0
41 -598 -45 0
-41 -598 45 0
-41 598 42 0
42 599 -43 0
42 -599 -44 0
-42 -599 44 0
-42 599 43 0
43 -554 -600 0
43 -553 600 0
-43 553 600 0
-43 554 -600 0
44 -556 -600 0
44 -555 600 0
-44 555 600 0
-44 556 -600 0
45 599 -46 0
45 -599 -47 0
-45 -599 47 0
-45 599 46 0
46 -558 -600 0
46 -557 600 0
-46 557 600 0
-46 558 -600 0
47 -560 -600 0
47 -559 600 0
-47 559 600 0
-47 560 -600 0
48 598 -49 0
48 -598 -52 0
-48 -598 52 0
-48 598 49 0
49 599 -50 0
49 -599 -51 0
-49 -599 51 0
-49 599 50 0
50 -562 -600 0
50 -561 600 0
-50 561 600 0
-50 562 -600 0
51 -564 -600 0
51 -563 600 0
-51 563 600 0
-51 564 -600 0
52 599 -53 0
52 -599 -54 0
-52 -599 54 0
-52 599 53 0
53 -566 -600 0
53 -565 600 0
-53 565 600 0
-53 566 -600 0
54 -568 -600 0
54 -567 600 0
-54 567 600 0
-54 568 -600 0
55 -596 5 -59 0
55 596 5 -56 0
-55 -5 0
-55 -596 59 0
-55 596 56 0
-56 597 57 0
-56 -597 58 0
56 -597 -58 0
56 597 -57 0
-57 -598 34 0
-57 598 30 0
57 598 -30 0
57 -598 -34 0
58 598 -37 0
58 -598 -42 0
-58 -598 42 0
-58 598 37 0
59 597 -60 0
59 -597 -61 0
-59 -597 61 0
-59 597 60 0
60 598 -45 0
60 -598 -49 0
-60 -598 49 0
-60 598 45 0
61 598 -52 0
-61 -598 0
-61 52 0
-62 63 102 112 118 0
62 -118 0
62 -112 0
62 -63 0
62 -102 0
-63 64 67 90 0
63 -64 0
63 -90 0
63 -67 0
64 -596 5 -66 0
64 596 5 -65 0
-64 -5 0
-64 -596 66 0
-64 596 65 0
65 597 -58 0
65 -597 -60 0
-65 -597 60 0
-65 597 58 0
66 597 -61 0
-66 -597 0
-66 61 0
67 -596 5 -83 0
67 596 5 -68 0
-67 -5 0
-67 -596 83 0
-67 596 68 0
68 597 -69 0
68 -597 -76 0
-68 -597 76 0
-68 597 69 0
69 598 -70 0
69 -598 -73 0
-69 -598 73 0
-69 598 70 0
70 599 -71 0
70 -599 -72 0
-70 -599 72 0
-70 599 71 0
71 -547 -600 0
71 -546 600 0
-71 546 600 0
-71 547 -600 0
72 -549 -600 0
72 -548 600 0
-72 548 600 0
-72 549 -600 0
73 599 -74 0
73 -599 -75 0
-73 -599 75 0
-73 599 74 0
74 -551 -600 0
74 -550 600 0
-74 550 600 0
-74 551 -600 0
75 -553 -600 0
75 -552 600 0
-75 552 600 0
-75 553 -600 0
76 598 -77 0
76 -598 -80 0
-76 -598 80 0
-76 598 77 0
77 599 -78 0
77 -599 -79 0
-77 -599 79 0
-77 599 78 0
78 -555 -600 0
78 -554 600 0
-78 554 600 0
-78 555 -600 0
79 -557 -600 0
79 -556 600 0
-79 556 600 0
-79 557 -600 0
80 599 -81 0
80 -599 -82 0
-80 -599 82 0
-80 599 81 0
81 -559 -600 0
81 -558 600 0
-81 558 600 0
-81 559 -600 0
82 -561 -600 0
82 -560 600 0
-82 560 600 0
-82 561 -600 0
83 597 -84 0
-83 -597 0
-83 84 0
84 598 -85 0
84 -598 -88 0
-84 -598 88 0
-84 598 85 0
85 599 -86 0
85 -599 -87 0
-85 -599 87 0
-85 599 86 0
86 -563 -600 0
86 -562 600 0
-86 562 600 0
-86 563 -600 0
87 -565 -600 0
87 -564 600 0
-87 564 600 0
-87 565 -600 0
88 599 -89 0
88 -568 -599 600 0
-88 599 89 0
-88 -599 -600 0
-88 568 -599 0
89 -567 -600 0
89 -566 600 0
-89 566 600 0
-89 567 -600 0
90 -596 5 -98 0
90 596 5 -91 0
-90 -5 0
-90 -596 98 0
-90 596 91 0
91 597 -92 0
91 -597 -95 0
-91 -597 95 0
-91 597 92 0
92 598 -93 0
92 -598 -94 0
-92 -598 94 0
-92 598 93 0
93 599 -36 0
93 -599 -38 0
-93 -599 38 0
-93 599 36 0
94 599 -39 0
94 -599 -43 0
-94 -599 43 0
-94 599 39 0
95 598 -96 0
95 -598 -97 0
-95 -598 97 0
-95 598 96 0
96 599 -44 0
96 -599 -46 0
-96 -599 46 0
-96 599 44 0
97 599 -47 0
97 -599 -50 0
-97 -599 50 0
-97 599 47 0
98 597 -99 0
-98 -597 0
-98 99 0
99 598 -100 0
99 -598 -101 0
-99 -598 101 0
-99 598 100 0
100 599 -51 0
100 -599 -53 0
-100 -599 53 0
-100 599 51 0
101 -567 599 600 0
101 -568 599 -600 0
-101 -599 0
-101 568 -600 0
-101 567 600 0
102 -596 5 -110 0
102 596 5 -103 0
-102 -5 0
-102 -596 110 0
-102 596 103 0
103 597 -104 0
103 -597 -107 0
-103 -597 107 0
-103 597 104 0
104 598 -105 0
104 -598 -106 0
-104 -598 106 0
-104 598 105 0
105 599 -75 0
105 -599 -78 0
-105 -599 78 0
-105 599 75 0
106 599 -79 0
106 -599 -81 0
-106 -599 81 0
-106 599 79 0
107 598 -108 0
107 -598 -109 0
-107 -598 109 0
-107 598 108 0
108 599 -82 0
108 -599 -86 0
-108 -599 86 0
-108 599 82 0
109 599 -87 0
109 -599 -89 0
-109 -599 89 0
-109 599 87 0
110 597 -111 0
-110 -597 0
-110 111 0
111 -568 598 599 600 0
-111 -600 0
-111 -599 0
-111 568 0
-111 -598 0
112 -596 5 -116 0
112 596 5 -113 0
-112 -5 0
-112 -596 116 0
-112 596 113 0
113 597 -114 0
113 -597 -115 0
-113 -597 115 0
-113 597 114 0
114 598 -73 0
114 -598 -77 0
-114 -598 77 0
-114 598 73 0
115 598 -80 0
115 -598 -85 0
-115 -598 85 0
-115 598 80 0
116 597 -117 0
-116 -597 0
-116 117 0
117 598 -88 0
-117 -598 0
-117 88 0
118 -596 5 -123 0
118 596 5 -119 0
-118 -5 0
-118 -596 123 0
-118 596 119 0
119 597 -120 0
119 -597 -122 0
-119 -597 122 0
-119 597 120 0
120 -598 -105 0
120 598 -121 0
-120 598 121 0
-120 -598 105 0
121 599 -72 0
121 -599 -74 0
-121 -599 74 0
-121 599 72 0
122 598 -106 0
122 -598 -108 0
-122 -598 108 0
-122 598 106 0
123 597 -124 0
-123 -597 0
-123 124 0
124 598 -109 0
124 -598 -125 0
-124 -598 125 0
-124 598 109 0
125 -568 599 600 0
-125 568 0
-125 -600 0
-125 -599 0
-126 127 148 150 151 0
126 -151 0
126 -150 0
126 -127 0
126 -148 0
-127 128 135 142 144 0
127 -144 0
127 -142 0
127 -128 0
127 -135 0
128 -98 129 0
-128 98 0
-128 -129 0
-129 571 572 130 131 0
129 -571 0
129 -131 0
129 -130 0
129 -572 0
-130 569 570 0
130 -569 0
130 -570 0
-131 573 596 10 132 0
131 -573 0
131 -132 0
131 -10 0
131 -596 0
-132 6 12 133 134 0
132 -134 0
132 -6 0
132 -133 0
132 -12 0
-133 583 586 0
133 -583 0
133 -586 0
-134 581 582 9 16 0
134 -581 0
134 -16 0
134 -9 0
134 -582 0
135 -596 5 -141 0
135 596 5 -136 0
-135 -5 0
-135 -596 141 0
-135 596 136 0
-136 -597 114 0
-136 597 137 0
136 -597 -114 0
136 597 -137 0
-137 598 138 0
-137 -598 70 0
137 -598 -70 0
137 598 -138 0
138 599 -139 0
138 -599 -140 0
-138 -599 140 0
-138 599 139 0
139 -543 -600 0
139 -542 600 0
-139 542 600 0
-139 543 -600 0
140 -545 -600 0
140 -544 600 0
-140 544 600 0
-140 545 -600 0
141 597 -115 0
141 -597 -117 0
-141 -597 117 0
-141 597 115 0
142 129 -143 0
-142 -129 0
-142 143 0
143 597 -48 0
-143 -597 0
-143 48 0
-144 145 146 0
144 -145 0
144 -146 0
145 -83 129 0
-145 83 0
-145 -129 0
146 129 -147 0
-146 -129 0
-146 147 0
147 597 -107 0
147 -597 -111 0
-147 -597 111 0
-147 597 107 0
148 596 5 -149 0
148 -596 5 -143 0
-148 -5 0
-148 -596 143 0
-148 596 149 0
149 597 -33 0
149 -597 -41 0
-149 -597 41 0
-149 597 33 0
150 -59 129 0
-150 59 0
-150 -129 0
-151 152 153 0
151 -152 0
151 -153 0
152 129 -141 0
-152 -129 0
-152 141 0
153 129 -154 0
-153 -129 0
-153 154 0
154 597 -155 0
154 -597 -156 0
-154 -597 156 0
-154 597 155 0
155 598 -97 0
155 -598 -100 0
-155 -598 100 0
-155 598 97 0
156 598 -101 0
-156 -598 0
-156 101 0
157 -596 5 -163 0
157 596 5 -158 0
-157 -5 0
-157 -596 163 0
-157 596 158 0
-158 -597 120 0
-158 597 159 0
158 -597 -120 0
158 597 -159 0
-159 598 160 0
-159 -598 162 0
159 -598 -162 0
159 598 -160 0
-160 599 161 0
-160 -599 139 0
160 -599 -139 0
160 599 -161 0
161 -541 -600 0
161 -540 600 0
-161 540 600 0
-161 541 -600 0
162 -599 -71 0
162 599 -140 0
-162 599 140 0
-162 -599 71 0
163 597 -122 0
163 -597 -124 0
-163 -597 124 0
-163 597 122 0
-164 165 175 0
164 -165 0
164 -175 0
-165 166 169 0
165 -166 0
165 -169 0
166 596 5 -167 0
166 -596 5 -147 0
-166 -5 0
-166 596 167 0
-166 -596 147 0
-167 -597 104 0
-167 597 168 0
167 -597 -104 0
167 597 -168 0
-168 598 162 0
-168 -598 121 0
168 -598 -121 0
168 598 -162 0
169 -596 5 -174 0
169 596 5 -170 0
-169 -5 0
-169 -596 174 0
-169 596 170 0
-170 -597 92 0
-170 597 171 0
170 -597 -92 0
170 597 -171 0
-171 598 172 0
-171 -598 173 0
171 -598 -173 0
171 598 -172 0
-172 -599 31 0
-172 599 28 0
172 599 -28 0
172 -599 -31 0
173 599 -32 0
173 -599 -35 0
-173 -599 35 0
-173 599 32 0
174 597 -95 0
174 -597 -99 0
-174 -597 99 0
-174 597 95 0
175 596 5 -176 0
175 -596 5 -154 0
-175 -5 0
-175 596 176 0
-175 -596 154 0
-176 597 177 0
-176 -597 178 0
176 -597 -178 0
176 597 -177 0
-177 598 173 0
-177 -598 93 0
177 -598 -93 0
177 598 -173 0
178 598 -94 0
178 -598 -96 0
-178 -598 96 0
-178 598 94 0
-179 180 182 187 192 0
179 -182 0
179 -192 0
179 -180 0
179 -187 0
180 129 -181 0
-180 -129 0
-180 181 0
181 597 -76 0
181 -597 -84 0
-181 -597 84 0
-181 597 76 0
-182 183 184 0
182 -183 0
182 -184 0
183 129 -174 0
-183 -129 0
-183 174 0
-184 185 186 0
184 -185 0
184 -186 0
185 129 -163 0
-185 -129 0
-185 163 0
186 -40 129 0
-186 40 0
-186 -129 0
187 596 5 -188 0
187 -596 5 -181 0
-187 -5 0
-187 596 188 0
-187 -596 181 0
-188 -597 69 0
-188 597 189 0
188 -597 -69 0
188 597 -189 0
-189 -598 138 0
-189 598 190 0
189 -598 -138 0
189 598 -190 0
-190 599 191 0
-190 -599 161 0
190 -599 -161 0
190 599 -191 0
191 -539 -600 0
191 -538 600 0
-191 538 600 0
-191 539 -600 0
192 -596 5 -194 0
192 596 5 -193 0
-192 -5 0
-192 -596 194 0
-192 596 193 0
193 -597 -155 0
193 597 -178 0
-193 597 178 0
-193 -597 155 0
194 597 -156 0
-194 -597 0
-194 156 0
195 -123 129 0
-195 123 0
-195 -129 0
-196 197 198 0
-196 -197 208 0
196 -197 -208 0
196 197 -198 0
197 -66 129 0
-197 66 0
-197 -129 0
-198 199 205 0
-198 -199 200 0
198 -199 -200 0
198 199 -205 0
199 -116 129 0
-199 116 0
-199 -129 0
200 201 -202 0
200 -201 -204 0
-200 -201 204 0
-200 201 202 0
201 129 -194 0
-201 -129 0
-201 194 0
202 -558 203 0
202 -557 -203 0
-202 558 203 0
-202 557 -203 0
203 -110 129 0
-203 110 0
-203 -129 0
204 -556 203 0
204 -555 -203 0
-204 556 203 0
-204 555 -203 0
205 201 -206 0
205 -201 -207 0
-205 -201 207 0
-205 201 206 0
206 -562 203 0
206 -561 -203 0
-206 562 203 0
-206 561 -203 0
207 -560 203 0
207 -559 -203 0
-207 560 203 0
-207 559 -203 0
208 199 -209 0
208 -199 -212 0
-208 -199 212 0
-208 199 209 0
209 201 -210 0
209 -201 -211 0
-209 -201 211 0
-209 201 210 0
210 -554 203 0
210 -553 -203 0
-210 554 203 0
-210 553 -203 0
211 -552 203 0
211 -551 -203 0
-211 552 203 0
-211 551 -203 0
212 201 -213 0
212 -201 -214 0
-212 -201 214 0
-212 201 213 0
213 -550 203 0
213 -549 -203 0
-213 550 203 0
-213 549 -203 0
214 -548 203 0
214 -547 -203 0
-214 548 203 0
-214 547 -203 0
215 197 -216 0
215 -197 -223 0
-215 -197 223 0
-215 197 216 0
216 199 -217 0
216 -199 -220 0
-216 -199 220 0
-216 199 217 0
217 201 -218 0
217 -201 -219 0
-217 -201 219 0
-217 201 218 0
218 -546 203 0
218 -545 -203 0
-218 546 203 0
-218 545 -203 0
219 -544 203 0
219 -543 -203 0
-219 544 203 0
-219 543 -203 0
220 201 -221 0
220 -201 -222 0
-220 -201 222 0
-220 201 221 0
221 -542 203 0
221 -541 -203 0
-221 542 203 0
-221 541 -203 0
222 -540 203 0
222 -539 -203 0
-222 540 203 0
-222 539 -203 0
223 199 -224 0
-223 -199 0
-223 224 0
224 201 -225 0
-224 -201 0
-224 225 0
225 -538 203 0
225 -537 -203 0
-225 538 203 0
-225 537 -203 0
226 22 -195 -242 0
226 22 195 -227 0
-226 -22 0
-226 -195 242 0
-226 195 227 0
-227 197 228 0
-227 -197 235 0
227 -197 -235 0
227 197 -228 0
-228 199 232 0
-228 -199 229 0
228 -199 -229 0
228 199 -232 0
229 201 -230 0
229 -201 -231 0
-229 -201 231 0
-229 201 230 0
230 -557 203 0
230 -556 -203 0
-230 557 203 0
-230 556 -203 0
231 -555 203 0
231 -554 -203 0
-231 555 203 0
-231 554 -203 0
232 201 -233 0
232 -201 -234 0
-232 -201 234 0
-232 201 233 0
233 -561 203 0
233 -560 -203 0
-233 561 203 0
-233 560 -203 0
234 -559 203 0
234 -558 -203 0
-234 559 203 0
-234 558 -203 0
235 199 -236 0
235 -199 -239 0
-235 -199 239 0
-235 199 236 0
236 201 -237 0
236 -201 -238 0
-236 -201 238 0
-236 201 237 0
237 -553 203 0
237 -552 -203 0
-237 553 203 0
-237 552 -203 0
238 -551 203 0
238 -550 -203 0
-238 551 203 0
-238 550 -203 0
239 201 -240 0
239 -201 -241 0
-239 -201 241 0
-239 201 240 0
240 -549 203 0
240 -548 -203 0
-240 549 203 0
-240 548 -203 0
241 -547 203 0
241 -546 -203 0
-241 547 203 0
-241 546 -203 0
242 197 -243 0
242 -197 -250 0
-242 -197 250 0
-242 197 243 0
243 199 -244 0
243 -199 -247 0
-243 -199 247 0
-243 199 244 0
244 201 -245 0
244 -201 -246 0
-244 -201 246 0
-244 201 245 0
245 -545 203 0
245 -544 -203 0
-245 545 203 0
-245 544 -203 0
246 -543 203 0
246 -542 -203 0
-246 543 203 0
-246 542 -203 0
247 201 -248 0
247 -201 -249 0
-247 -201 249 0
-247 201 248 0
248 -541 203 0
248 -540 -203 0
-248 541 203 0
-248 540 -203 0
249 -539 203 0
249 -538 -203 0
-249 539 203 0
-249 538 -203 0
250 199 -251 0
-250 -199 0
-250 251 0
251 -537 201 203 0
-251 537 0
-251 -203 0
-251 -201 0
252 600 -253 0
252 -600 -265 0
-252 -600 265 0
-252 600 253 0
253 22 -195 -261 0
253 22 195 -254 0
-253 -22 0
-253 -195 261 0
-253 195 254 0
-254 197 258 0
-254 -197 255 0
254 -197 -255 0
254 197 -258 0
255 199 -256 0
255 -199 -257 0
-255 -199 257 0
-255 199 256 0
256 201 -211 0
256 -201 -213 0
-256 -201 213 0
-256 201 211 0
257 201 -214 0
257 -201 -218 0
-257 -201 218 0
-257 201 214 0
258 199 -259 0
258 -199 -260 0
-258 -199 260 0
-258 199 259 0
259 -201 -202 0
259 201 -207 0
-259 201 207 0
-259 -201 202 0
260 201 -204 0
260 -201 -210 0
-260 -201 210 0
-260 201 204 0
261 197 -262 0
-261 -197 0
-261 262 0
262 199 -263 0
262 -199 -264 0
-262 -199 264 0
-262 199 263 0
263 201 -219 0
263 -201 -221 0
-263 -201 221 0
-263 201 219 0
264 201 -222 0
264 -201 -225 0
-264 -201 225 0
-264 201 222 0
265 22 -195 -273 0
265 22 195 -266 0
-265 -22 0
-265 -195 273 0
-265 195 266 0
-266 197 270 0
-266 -197 267 0
266 -197 -267 0
266 197 -270 0
267 199 -268 0
267 -199 -269 0
-267 -199 269 0
-267 199 268 0
268 201 -238 0
268 -201 -240 0
-268 -201 240 0
-268 201 238 0
269 201 -241 0
269 -201 -245 0
-269 -201 245 0
-269 201 241 0
270 199 -271 0
270 -199 -272 0
-270 -199 272 0
-270 199 271 0
271 -201 -230 0
271 201 -234 0
-271 201 234 0
-271 -201 230 0
272 201 -231 0
272 -201 -237 0
-272 -201 237 0
-272 201 231 0
273 197 -274 0
-273 -197 0
-273 274 0
274 199 -275 0
274 -199 -276 0
-274 -199 276 0
-274 199 275 0
275 201 -246 0
275 -201 -248 0
-275 -201 248 0
-275 201 246 0
276 201 -249 0
276 -537 -201 203 0
-276 201 249 0
-276 -201 -203 0
-276 537 -201 0
277 599 -278 0
277 -599 -291 0
-277 -599 291 0
-277 599 278 0
278 600 -279 0
278 -600 -285 0
-278 -600 285 0
-278 600 279 0
279 22 -195 -283 0
279 22 195 -280 0
-279 -22 0
-279 -195 283 0
-279 195 280 0
-280 197 282 0
-280 -197 281 0
280 -197 -281 0
280 197 -282 0
281 199 -212 0
281 -199 -217 0
-281 -199 217 0
-281 199 212 0
282 199 -200 0
282 -199 -209 0
-282 -199 209 0
-282 199 200 0
283 197 -284 0
-283 -197 0
-283 284 0
284 199 -220 0
284 -199 -224 0
-284 -199 224 0
-284 199 220 0
285 22 -195 -289 0
285 22 195 -286 0
-285 -22 0
-285 -195 289 0
-285 195 286 0
-286 197 288 0
-286 -197 287 0
286 -197 -287 0
286 197 -288 0
287 199 -239 0
287 -199 -244 0
-287 -199 244 0
-287 199 239 0
288 199 -229 0
288 -199 -236 0
-288 -199 236 0
-288 199 229 0
289 197 -290 0
-289 -197 0
-289 290 0
290 199 -247 0
290 -199 -251 0
-290 -199 251 0
-290 199 247 0
291 600 -292 0
291 -600 -298 0
-291 -600 298 0
-291 600 292 0
292 22 -195 -296 0
292 22 195 -293 0
-292 -22 0
-292 -195 296 0
-292 195 293 0
-293 197 295 0
-293 -197 294 0
293 -197 -294 0
293 197 -295 0
294 199 -257 0
294 -199 -263 0
-294 -199 263 0
-294 199 257 0
295 -199 -256 0
295 199 -260 0
-295 199 260 0
-295 -199 256 0
296 197 -297 0
-296 -197 0
-296 297 0
297 199 -264 0
-297 -199 0
-297 264 0
298 22 -195 -302 0
298 22 195 -299 0
-298 -22 0
-298 -195 302 0
-298 195 299 0
-299 197 301 0
-299 -197 300 0
299 -197 -300 0
299 197 -301 0
300 199 -269 0
300 -199 -275 0
-300 -199 275 0
-300 199 269 0
301 -199 -268 0
301 199 -272 0
-301 199 272 0
-301 -199 268 0
302 197 -303 0
-302 -197 0
-302 303 0
303 199 -276 0
-303 -199 0
-303 276 0
304 598 -305 0
304 -598 -318 0
-304 -598 318 0
-304 598 305 0
305 599 -306 0
305 -599 -313 0
-305 -599 313 0
-305 599 306 0
306 600 -307 0
306 -600 -310 0
-306 -600 310 0
-306 600 307 0
307 22 -195 -309 0
307 22 195 -308 0
-307 -22 0
-307 -195 309 0
-307 195 308 0
-308 -197 216 0
-308 197 208 0
308 197 -208 0
308 -197 -216 0
309 197 -223 0
-309 -197 0
-309 223 0
310 22 -195 -312 0
310 22 195 -311 0
-310 -22 0
-310 -195 312 0
-310 195 311 0
-311 -197 243 0
-311 197 235 0
311 197 -235 0
311 -197 -243 0
312 197 -250 0
-312 -197 0
-312 250 0
313 600 -314 0
313 -600 -316 0
-313 -600 316 0
-313 600 314 0
314 197 -255 315 0
314 -197 -262 315 0
-314 -315 0
-314 -197 262 0
-314 197 255 0
-315 22 195 0
315 -22 0
315 -195 0
316 315 -317 0
-316 -315 0
-316 317 0
317 197 -267 0
317 -197 -274 0
-317 -197 274 0
-317 197 267 0
318 599 -319 0
318 -599 -324 0
-318 -599 324 0
-318 599 319 0
319 600 -320 0
319 -600 -322 0
-319 -600 322 0
-319 600 320 0
320 315 -321 0
-320 -315 0
-320 321 0
321 197 -281 0
321 -197 -284 0
-321 -197 284 0
-321 197 281 0
322 315 -323 0
-322 -315 0
-322 323 0
323 197 -287 0
323 -197 -290 0
-323 -197 290 0
-323 197 287 0
324 600 -325 0
324 -600 -327 0
-324 -600 327 0
-324 600 325 0
325 315 -326 0
-325 -315 0
-325 326 0
326 197 -294 0
326 -197 -297 0
-326 -197 297 0
-326 197 294 0
327 315 -328 0
-327 -315 0
-327 328 0
328 197 -300 0
328 -197 -303 0
-328 -197 303 0
-328 197 300 0
329 597 -330 0
329 -597 598 -345 0
-329 -597 -598 0
-329 597 330 0
-329 -597 345 0
330 598 -331 0
330 -598 -338 0
-330 -598 338 0
-330 598 331 0
331 599 -332 0
331 -599 -335 0
-331 -599 335 0
-331 599 332 0
332 600 -333 0
332 -600 -334 0
-332 -600 334 0
-332 600 333 0
333 -215 315 0
-333 215 0
-333 -315 0
334 -242 315 0
-334 242 0
-334 -315 0
335 600 -336 0
335 -600 -337 0
-335 -600 337 0
-335 600 336 0
336 -261 315 0
-336 261 0
-336 -315 0
337 -273 315 0
-337 273 0
-337 -315 0
338 599 -339 0
338 -599 -342 0
-338 -599 342 0
-338 599 339 0
339 600 -340 0
339 -600 -341 0
-339 -600 341 0
-339 600 340 0
340 -283 315 0
-340 283 0
-340 -315 0
341 -289 315 0
-341 289 0
-341 -315 0
342 600 -343 0
342 -600 -344 0
-342 -600 344 0
-342 600 343 0
343 -296 315 0
-343 296 0
-343 -315 0
344 -302 315 0
-344 302 0
-344 -315 0
345 599 -346 0
-345 -599 0
-345 346 0
346 600 -347 0
346 -600 -348 0
-346 -600 348 0
-346 600 347 0
347 -309 315 0
-347 309 0
-347 -315 0
348 -312 315 0
-348 312 0
-348 -315 0
349 350 351 363 -376 0
-349 376 0
-349 -350 0
-349 -363 0
-349 -351 0
-350 573 55 0
350 -573 0
350 -55 0
-351 352 355 358 359 0
351 -359 0
351 -352 0
351 -358 0
351 -355 0
-352 579 90 353 354 0
352 -579 0
352 -354 0
352 -353 0
352 -90 0
-353 577 148 0
353 -577 0
353 -148 0
-354 578 67 0
354 -578 0
354 -67 0
-355 576 166 356 357 0
355 -576 0
355 -357 0
355 -356 0
355 -166 0
-356 580 118 0
356 -580 0
356 -118 0
-357 581 64 0
357 -581 0
357 -64 0
-358 571 572 157 169 0
358 -169 0
358 -157 0
358 -571 0
358 -572 0
-359 575 175 360 362 0
359 -575 0
359 -362 0
359 -360 0
359 -175 0
-360 569 24 361 0
360 -361 0
360 -24 0
360 -569 0
-361 570 187 0
361 -570 0
361 -187 0
-362 574 135 0
362 -574 0
362 -135 0
-363 582 112 364 369 0
363 -582 0
363 -369 0
363 -364 0
363 -112 0
-364 587 183 365 366 0
364 -587 0
364 -366 0
364 -365 0
364 -183 0
-365 586 180 0
365 -586 0
365 -180 0
-366 585 186 367 368 0
366 -585 0
366 -368 0
366 -367 0
366 -186 0
-367 583 192 0
367 -583 0
367 -192 0
-368 584 102 0
368 -584 0
368 -102 0
-369 590 152 370 371 0
369 -590 0
369 -371 0
369 -370 0
369 -152 0
-370 589 150 0
370 -589 0
370 -150 0
-371 594 145 372 375 0
371 -594 0
371 -375 0
371 -372 0
371 -145 0
-372 595 128 373 374 0
372 -595 0
372 -374 0
372 -373 0
372 -128 0
-373 592 146 0
373 -592 0
373 -146 0
-374 593 142 0
374 -593 0
374 -142 0
-375 591 153 0
375 -591 0
375 -153 0
376 377 -378 0
-376 -377 0
-376 378 0
-377 588 185 0
377 -588 0
377 -185 0
-378 -379 398 0
-378 379 380 391 0
378 379 -380 0
378 -379 -398 0
378 379 -391 0
-379 596 195 0
379 -596 0
379 -195 0
380 381 382 -388 0
380 381 -382 -383 0
-380 -381 0
-380 382 388 0
-380 -382 383 0
-381 597 197 0
381 -597 0
381 -197 0
-382 598 199 0
382 -598 0
382 -199 0
383 384 -385 0
383 -384 -387 0
-383 -384 387 0
-383 384 385 0
-384 599 201 0
384 -599 0
384 -201 0
385 -558 386 0
385 -557 -386 0
-385 557 -386 0
-385 558 386 0
-386 600 203 0
386 -600 0
386 -203 0
387 -556 386 0
387 -555 -386 0
-387 555 -386 0
-387 556 386 0
388 384 -389 0
388 -384 -390 0
-388 -384 390 0
-388 384 389 0
389 -562 386 0
389 -561 -386 0
-389 561 -386 0
-389 562 386 0
390 -560 386 0
390 -559 -386 0
-390 559 -386 0
-390 560 386 0
391 -381 -382 -395 0
391 -381 382 -392 0
-391 381 0
-391 382 392 0
-391 -382 395 0
392 384 -393 0
392 -384 -394 0
-392 -384 394 0
-392 384 393 0
393 -554 386 0
393 -553 -386 0
-393 553 -386 0
-393 554 386 0
394 -552 386 0
394 -551 -386 0
-394 551 -386 0
-394 552 386 0
395 384 -396 0
395 -384 -397 0
-395 -384 397 0
-395 384 396 0
396 -550 386 0
396 -549 -386 0
-396 549 -386 0
-396 550 386 0
397 -548 386 0
397 -547 -386 0
-397 547 -386 0
-397 548 386 0
398 381 -399 0
398 -381 382 -406 0
-398 381 399 0
-398 -381 -382 0
-398 -381 406 0
399 382 -400 0
399 -382 -403 0
-399 -382 403 0
-399 382 400 0
400 384 -401 0
400 -384 -402 0
-400 -384 402 0
-400 384 401 0
401 -546 386 0
401 -545 -386 0
-401 545 -386 0
-401 546 386 0
402 -544 386 0
402 -543 -386 0
-402 543 -386 0
-402 544 386 0
403 384 -404 0
403 -384 -405 0
-403 -384 405 0
-403 384 404 0
404 -542 386 0
404 -541 -386 0
-404 541 -386 0
-404 542 386 0
405 -540 386 0
405 -539 -386 0
-405 539 -386 0
-405 540 386 0
406 -537 384 -386 0
406 -538 384 386 0
-406 -384 0
-406 538 386 0
-406 537 -386 0
407 350 351 408 -436 0
-407 436 0
-407 -350 0
-407 -351 0
-407 -408 0
408 -596 5 -427 0
408 596 5 -409 0
-408 -5 0
-408 -596 427 0
-408 596 409 0
409 597 -410 0
409 -597 -421 424 0
-409 -597 421 0
-409 597 410 0
-409 -597 -424 0
410 598 -411 0
410 -598 -419 420 0
-410 -598 419 0
-410 598 411 0
-410 -598 -420 0
411 599 -412 0
411 -599 -418 0
-411 -599 418 0
-411 599 412 0
412 -600 -21 0
412 600 -413 0
-412 600 413 0
-412 -600 21 0
413 22 195 -414 0
413 22 -195 -328 0
-413 -22 0
-413 -195 328 0
-413 195 414 0
-414 -197 301 0
-414 197 415 0
414 -197 -301 0
414 197 -415 0
-415 199 416 0
-415 -199 271 0
415 -199 -271 0
415 199 -416 0
416 -201 -233 0
416 201 -417 0
-416 201 417 0
-416 -201 233 0
417 -563 203 0
417 -562 -203 0
-417 563 203 0
-417 562 -203 0
418 600 -226 0
418 -600 -253 0
-418 -600 253 0
-418 600 226 0
-419 599 -600 279 0
-419 599 600 265 0
419 -599 0
419 -600 -279 0
419 600 -265 0
420 -599 -600 292 0
420 -599 600 285 0
-420 599 0
-420 -600 -292 0
-420 600 -285 0
-421 598 -599 423 0
-421 598 599 422 0
421 -598 0
421 -599 -423 0
421 599 -422 0
422 600 -298 0
422 -600 -307 0
-422 -600 307 0
-422 600 298 0
423 600 -310 0
423 -600 -314 0
-423 -600 314 0
-423 600 310 0
424 -598 -599 426 0
424 -598 599 425 0
-424 598 0
-424 -599 -426 0
-424 599 -425 0
425 600 -316 0
425 -600 -320 0
-425 -600 320 0
-425 600 316 0
426 600 -322 0
426 -600 -325 0
-426 -600 325 0
-426 600 322 0
427 597 -428 0
427 -597 598 -434 0
-427 -597 -598 0
-427 597 428 0
-427 -597 434 0
428 598 -429 0
428 -598 -432 433 0
-428 -598 432 0
-428 598 429 0
-428 -598 -433 0
429 599 -430 0
429 -599 -431 0
-429 -599 431 0
-429 599 430 0
430 600 -327 0
430 -600 -333 0
-430 -600 333 0
-430 600 327 0
431 600 -334 0
431 -600 -336 0
-431 -600 336 0
-431 600 334 0
-432 599 -600 340 0
-432 599 600 337 0
432 -599 0
432 -600 -340 0
432 600 -337 0
433 -599 -600 343 0
433 -599 600 341 0
-433 599 0
-433 -600 -343 0
-433 600 -341 0
434 599 -435 0
434 -599 600 -348 0
-434 -599 -600 0
-434 599 435 0
-434 -599 348 0
435 600 -344 0
435 -600 -347 0
-435 -600 347 0
-435 600 344 0
436 363 377 -450 0
436 363 377 -437 0
-436 -363 0
-436 -377 0
-436 437 450 0
437 379 -381 -444 0
437 379 381 -438 0
-437 -379 0
-437 381 438 0
-437 -381 444 0
-438 382 442 0
-438 -382 439 0
-438 382 -443 0
438 -382 -439 0
438 382 -442 443 0
439 384 -440 0
439 -384 -441 0
-439 -384 441 0
-439 384 440 0
440 -559 386 0
440 -558 -386 0
-440 558 -386 0
-440 559 386 0
441 -557 386 0
441 -556 -386 0
-441 556 -386 0
-441 557 386 0
-442 563 384 386 0
-442 562 384 -386 0
442 -384 0
442 -562 -386 0
442 -563 386 0
443 561 -384 386 0
443 560 -384 -386 0
-443 384 0
-443 -560 -386 0
-443 -561 386 0
444 382 -445 0
444 -382 -448 449 0
-444 -382 -449 0
-444 382 445 0
-444 -382 448 0
445 384 -446 0
445 -384 -447 0
-445 -384 447 0
-445 384 446 0
446 -555 386 0
446 -554 -386 0
-446 554 -386 0
-446 555 386 0
447 -553 386 0
447 -552 -386 0
-447 552 -386 0
-447 553 386 0
-448 551 384 386 0
-448 550 384 -386 0
448 -384 0
448 -550 -386 0
448 -551 386 0
449 549 -384 386 0
449 548 -384 -386 0
-449 384 0
-449 -548 -386 0
-449 -549 386 0
450 -379 -451 0
-450 379 0
-450 451 0
451 381 -452 0
451 -381 382 -458 0
-451 381 452 0
-451 -381 -382 0
-451 -381 458 0
452 382 -453 0
452 -382 -456 457 0
-452 -382 -457 0
-452 382 453 0
-452 -382 456 0
453 384 -454 0
453 -384 -455 0
-453 -384 455 0
-453 384 454 0
454 -547 386 0
454 -546 -386 0
-454 546 -386 0
-454 547 386 0
455 -545 386 0
455 -544 -386 0
-455 544 -386 0
-455 545 386 0
-456 543 384 386 0
-456 542 384 -386 0
456 -384 0
456 -542 -386 0
456 -543 386 0
457 541 -384 386 0
457 540 -384 -386 0
-457 384 0
-457 -540 -386 0
-457 -541 386 0
458 384 -459 0
458 -537 -384 386 0
-458 -384 -386 0
-458 384 459 0
-458 537 -384 0
459 -539 386 0
459 -538 -386 0
-459 538 -386 0
-459 539 386 0
460 -596 5 -482 0
460 596 5 -461 0
-460 -5 0
-460 -596 482 0
-460 596 461 0
461 597 -462 0
461 -597 -481 0
-461 -597 481 0
-461 597 462 0
462 -598 -19 0
462 598 -463 0
-462 598 463 0
-462 -598 19 0
463 599 -464 0
463 -599 -476 0
-463 -599 476 0
-463 599 464 0
464 600 22 -465 0
464 -600 22 -471 0
-464 -22 0
-464 -600 471 0
-464 600 465 0
-465 -195 321 0
-465 195 466 0
465 -195 -321 0
465 195 -466 0
-466 -197 282 0
-466 197 467 0
466 -197 -282 0
466 197 -467 0
-467 -199 205 0
-467 199 468 0
467 -199 -205 0
467 199 -468 0
-468 201 470 0
-468 -201 469 0
468 -201 -469 0
468 201 -470 0
469 -564 203 0
469 -563 -203 0
-469 564 203 0
-469 563 -203 0
470 -566 203 0
470 -565 -203 0
-470 566 203 0
-470 565 -203 0
-471 -195 323 0
-471 195 472 0
471 -195 -323 0
471 195 -472 0
-472 -197 288 0
-472 197 473 0
472 -197 -288 0
472 197 -473 0
-473 -199 232 0
-473 199 474 0
473 -199 -232 0
473 199 -474 0
-474 201 475 0
-474 -201 417 0
474 -201 -417 0
474 201 -475 0
475 -565 203 0
475 -564 -203 0
-475 565 203 0
-475 564 -203 0
476 -600 -413 0
476 600 22 -477 0
-476 -600 413 0
-476 600 477 0
-476 600 -22 0
-477 -195 326 0
-477 195 478 0
477 -195 -326 0
477 195 -478 0
-478 -197 295 0
-478 197 479 0
478 -197 -295 0
478 197 -479 0
-479 199 480 0
-479 -199 259 0
479 -199 -259 0
479 199 -480 0
480 -201 -206 0
480 201 -469 0
-480 201 469 0
-480 -201 206 0
481 598 -277 0
481 -598 -305 0
-481 -598 305 0
-481 598 277 0
482 597 -483 0
482 -597 -484 0
-482 -597 484 0
-482 597 483 0
483 598 -318 0
483 -598 -331 0
-483 -598 331 0
-483 598 318 0
484 598 -338 0
484 -598 -345 0
-484 -598 345 0
-484 598 338 0
485 350 351 363 -486 0
-485 486 0
-485 -350 0
-485 -363 0
-485 -351 0
486 377 -487 0
-486 -377 0
-486 487 0
-487 379 488 0
-487 -379 -495 0
-487 -379 494 0
487 379 -488 0
487 -379 -494 495 0
-488 381 489 0
-488 -381 493 0
488 381 -489 0
488 -381 -493 0
-489 382 490 0
-489 -382 388 0
489 -382 -388 0
489 382 -490 0
-490 384 492 0
-490 -384 491 0
490 -384 -491 0
490 384 -492 0
491 -564 386 0
491 -563 -386 0
-491 563 -386 0
-491 564 386 0
492 -566 386 0
492 -565 -386 0
-492 565 -386 0
-492 566 386 0
493 382 -383 0
493 -382 -392 0
-493 -382 392 0
-493 382 383 0
-494 381 -382 400 0
-494 381 382 395 0
494 -381 0
494 382 -395 0
494 -382 -400 0
495 -381 382 403 0
495 -381 -382 406 0
-495 381 0
-495 382 -403 0
-495 -382 -406 0
496 497 -520 0
496 -497 520 0
-496 -497 -520 0
-496 497 520 0
497 -596 5 -514 0
497 596 5 -498 0
-497 -5 0
-497 -596 514 0
-497 596 498 0
498 597 -499 0
498 -597 -512 513 0
-498 -597 512 0
-498 597 499 0
-498 -597 -513 0
499 598 -500 0
499 -598 -511 0
-499 -598 511 0
-499 598 500 0
500 -599 -464 0
500 599 -501 0
-500 -599 464 0
-500 599 501 0
-501 -600 502 0
-501 600 507 0
-501 600 -315 0
501 -600 -502 0
501 600 315 -507 0
502 22 195 -503 0
502 22 -195 -317 0
-502 -22 0
-502 -195 317 0
-502 195 503 0
-503 -197 270 0
-503 197 504 0
503 -197 -270 0
503 197 -504 0
-504 -199 416 0
-504 199 505 0
504 -199 -416 0
504 199 -505 0
-505 201 506 0
-505 -201 475 0
505 -201 -475 0
505 201 -506 0
506 -567 203 0
506 -566 -203 0
-506 567 203 0
-506 566 -203 0
-507 195 -197 258 0
-507 195 197 508 0
507 -195 0
507 -197 -258 0
507 197 -508 0
508 -199 -480 0
508 199 -509 0
-508 199 509 0
-508 -199 480 0
509 -201 -470 0
509 -568 201 510 0
-509 -201 470 0
-509 568 201 0
-509 201 -510 0
510 567 -203 0
-510 -567 0
-510 203 0
511 -599 -20 0
511 599 -476 0
-511 599 476 0
-511 -599 20 0
-512 598 -599 278 0
-512 598 599 252 0
512 -598 0
512 -599 -278 0
512 599 -252 0
513 -598 -599 306 0
513 -598 599 291 0
-513 598 0
-513 -599 -306 0
-513 599 -291 0
514 597 -515 0
514 -597 -518 519 0
-514 -597 518 0
-514 597 515 0
-514 -597 -519 0
515 598 -516 0
515 -598 -517 0
-515 -598 517 0
-515 598 516 0
516 599 -313 0
516 -599 -319 0
-516 -599 319 0
-516 599 313 0
517 599 -324 0
517 -599 -332 0
-517 -599 332 0
-517 599 324 0
-518 598 -599 339 0
-518 598 599 335 0
518 -598 0
518 -599 -339 0
518 599 -335 0
519 -598 -599 346 0
519 -598 599 342 0
-519 598 0
-519 -599 -346 0
-519 599 -342 0
520 350 351 363 -521 0
-520 521 0
-520 -350 0
-520 -363 0
-520 -351 0
521 377 -522 0
-521 -377 0
-521 522 0
-522 379 523 0
-522 -379 -533 0
-522 -379 530 0
522 379 -523 0
522 -379 -530 533 0
-523 381 524 0
-523 -381 -529 0
-523 -381 528 0
523 381 -524 0
523 -381 -528 529 0
-524 -382 527 0
-524 382 525 526 0
524 382 -525 0
524 -382 -527 0
524 382 -526 0
525 -567 384 -386 0
525 -568 384 386 0
-525 -384 0
-525 568 386 0
-525 567 -386 0
526 -565 -384 -386 0
526 -566 -384 386 0
-526 384 0
-526 566 386 0
-526 565 -386 0
527 -384 -389 0
527 384 -491 0
-527 384 491 0
-527 -384 389 0
-528 382 384 390 0
-528 382 -384 385 0
528 -382 0
528 384 -390 0
528 -384 -385 0
529 -382 384 387 0
529 -382 -384 393 0
-529 382 0
-529 384 -387 0
-529 -384 -393 0
-530 381 531 0
-530 381 -532 0
530 -381 0
530 -531 532 0
-531 382 -384 396 0
-531 382 384 394 0
531 -382 0
531 384 -394 0
531 -384 -396 0
532 -382 384 397 0
532 -382 -384 401 0
-532 382 0
-532 384 -397 0
-532 -384 -401 0
533 -381 534 0
533 -381 -535 0
-533 381 0
-533 -534 535 0
-534 382 -384 404 0
-534 382 384 402 0
534 -382 0
534 384 -402 0
534 -384 -404 0
535 -382 384 405 0
535 -382 -384 536 0
-535 382 0
-535 384 -405 0
-535 -384 -536 0
536 -538 386 0
536 -537 -386 0
-536 537 -386 0
-536 538 386 0
-601 0
2 0

